
Gurobi 8.1.0 (linux64, Python) logging started Tue Apr  9 11:55:30 2019


Gurobi 8.1.0 (linux64, Python) logging started Tue Apr  9 11:55:56 2019


Gurobi 8.1.0 (linux64, Python) logging started Tue Apr  9 11:57:58 2019

Academic license - for non-commercial use only
Optimize a model with 4 rows, 2 columns and 6 nonzeros
Coefficient statistics:
  Matrix range     [1e+00, 2e+00]
  Objective range  [4e+00, 1e+01]
  Bounds range     [0e+00, 0e+00]
  RHS range        [6e+00, 2e+01]
Presolve removed 2 rows and 0 columns
Presolve time: 0.01s
Presolved: 2 rows, 2 columns, 4 nonzeros

Iteration    Objective       Primal Inf.    Dual Inf.      Time
       0    7.5000000e+01   7.500000e-01   0.000000e+00      0s
       1    7.2000000e+01   0.000000e+00   0.000000e+00      0s

Solved in 1 iterations and 0.02 seconds
Optimal objective  7.200000000e+01

Gurobi 8.1.0 (linux64, Python) logging started Tue Apr  9 12:17:13 2019

Academic license - for non-commercial use only
Optimize a model with 4 rows, 2 columns and 6 nonzeros
Coefficient statistics:
  Matrix range     [1e+00, 2e+00]
  Objective range  [4e+00, 1e+01]
  Bounds range     [0e+00, 0e+00]
  RHS range        [6e+00, 2e+01]
Presolve removed 2 rows and 0 columns
Presolve time: 0.01s
Presolved: 2 rows, 2 columns, 4 nonzeros

Iteration    Objective       Primal Inf.    Dual Inf.      Time
       0    7.5000000e+01   7.500000e-01   0.000000e+00      0s
       1    7.2000000e+01   0.000000e+00   0.000000e+00      0s

Solved in 1 iterations and 0.01 seconds
Optimal objective  7.200000000e+01

Gurobi 8.1.0 (linux64, Python) logging started Tue May  7 19:10:03 2019

Academic license - for non-commercial use only
Optimize a model with 1127251 rows, 563250 columns and 4498500 nonzeros
Variable types: 750 continuous, 562500 integer (562500 binary)
Coefficient statistics:
  Matrix range     [1e+00, 8e+02]
  Objective range  [1e+00, 4e+00]
  Bounds range     [1e+00, 1e+00]
  RHS range        [1e+00, 8e+02]
Presolve removed 283125 rows and 750 columns (presolve time = 5s) ...
Presolve removed 283125 rows and 750 columns (presolve time = 12s) ...
Presolve removed 283125 rows and 750 columns
Presolve time: 13.76s
Presolved: 844126 rows, 562500 columns, 3932250 nonzeros
Variable types: 750 continuous, 561750 integer (561750 binary)

Deterministic concurrent LP optimizer: dual simplex and barrier
Showing barrier log only...

Root barrier log...

Ordering time: 0.00s

Barrier statistics:
 Dense cols : 750
 AA' NZ     : 5.338e+06
 Factor NZ  : 1.012e+07 (roughly 700 MBytes of memory)
 Factor Ops : 3.873e+09 (less than 1 second per iteration)
 Threads    : 1

                  Objective                Residual
Iter       Primal          Dual         Primal    Dual     Compl     Time
   0   1.41211405e+06  1.89422075e+03  2.44e+08 3.22e-02  2.30e+01    26s
   1   7.69892583e+04  1.40081823e+06  6.83e+06 8.33e-17  1.29e+00    28s
   2   2.47139641e+04  4.99463111e+05  1.43e+06 6.94e-17  3.33e-01    29s
   3   2.70242232e+03  7.19481878e+04  1.27e+05 6.94e-17  4.15e-02    30s
   4   7.17379232e+02  5.42484320e+03  1.03e+03 5.55e-17  2.43e-03    32s
   5   1.01919647e+03  3.82277685e+03  6.83e+02 5.55e-17  1.45e-03    34s
   6   1.09917647e+03  3.36023115e+03  5.82e+02 5.55e-17  1.17e-03    35s
   7   1.14789868e+03  3.20384358e+03  5.12e+02 5.55e-17  1.06e-03    36s
   8   1.20707761e+03  2.94127180e+03  4.38e+02 5.55e-17  8.96e-04    37s
   9   1.25955917e+03  2.39776368e+03  3.70e+02 5.55e-17  5.90e-04    38s
  10   1.32233499e+03  2.02412523e+03  3.02e+02 5.55e-17  3.66e-04    40s
  11   1.43194091e+03  1.86174141e+03  1.89e+02 5.55e-17  2.25e-04    42s
  12   1.49896380e+03  1.71325954e+03  1.22e+02 5.55e-17  1.13e-04    43s
  13   1.51085592e+03  1.68036523e+03  1.12e+02 5.55e-17  8.97e-05    44s
  14   1.55007443e+03  1.65643598e+03  7.15e+01 5.55e-17  5.64e-05    45s
  15   1.57482557e+03  1.64673282e+03  4.57e+01 5.55e-17  3.80e-05    47s
  16   1.59353602e+03  1.63009334e+03  2.67e+01 5.55e-17  1.94e-05    48s
  17   1.60486454e+03  1.62332262e+03  1.53e+01 5.55e-17  9.87e-06    49s
  18   1.61271659e+03  1.62191057e+03  7.39e+00 5.55e-17  4.91e-06    51s
  19   1.61963869e+03  1.62087526e+03  6.91e-01 5.55e-17  6.50e-07    52s
  20   1.62049765e+03  1.62050695e+03  7.30e-04 5.55e-17  4.75e-09    54s
  21   1.62050000e+03  1.62050001e+03  2.76e-07 5.55e-17  4.75e-12    55s

Barrier solved model in 21 iterations and 54.96 seconds
Optimal objective 1.62050000e+03


Root crossover log...

     103 DPushes remaining with DInf 0.0000000e+00                56s
       0 DPushes remaining with DInf 0.0000000e+00                56s

   11363 PPushes remaining with PInf 0.0000000e+00                56s
       0 PPushes remaining with PInf 0.0000000e+00                60s

  Push phase complete: Pinf 0.0000000e+00, Dinf 1.0799694e-13     60s


Root simplex log...

Iteration    Objective       Primal Inf.    Dual Inf.      Time
   11421    1.6205000e+03   0.000000e+00   0.000000e+00     60s
Concurrent spin time: 0.00s

Solved with barrier

Root relaxation: objective 1.620500e+03, 11421 iterations, 37.98 seconds

    Nodes    |    Current Node    |     Objective Bounds      |     Work
 Expl Unexpl |  Obj  Depth IntInf | Incumbent    BestBd   Gap | It/Node Time

     0     0 1620.50000    0 1727          - 1620.50000      -     -  137s

Explored 1 nodes (23833 simplex iterations) in 137.81 seconds
Thread count was 4 (of 4 available processors)

Solution count 0

Solve interrupted
Best objective -, best bound 1.620000000000e+03, gap -
Optimize a model with 1282401 rows, 640800 columns and 5118400 nonzeros
Variable types: 800 continuous, 640000 integer (640000 binary)
Coefficient statistics:
  Matrix range     [1e+00, 8e+02]
  Objective range  [3e+00, 3e+00]
  Bounds range     [1e+00, 1e+00]
  RHS range        [1e+00, 8e+02]
Presolve removed 322000 rows and 800 columns (presolve time = 5s) ...
Presolve removed 322000 rows and 800 columns (presolve time = 10s) ...
Presolve removed 322000 rows and 800 columns (presolve time = 16s) ...
Presolve removed 322000 rows and 800 columns
Presolve time: 16.39s
Presolved: 960401 rows, 640000 columns, 4474400 nonzeros
Variable types: 800 continuous, 639200 integer (639200 binary)

Deterministic concurrent LP optimizer: dual simplex and barrier
Showing barrier log only...

Root barrier log...

Ordering time: 0.00s

Barrier statistics:
 Dense cols : 800
 AA' NZ     : 6.074e+06
 Factor NZ  : 1.151e+07 (roughly 700 MBytes of memory)
 Factor Ops : 4.695e+09 (less than 1 second per iteration)
 Threads    : 1

                  Objective                Residual
Iter       Primal          Dual         Primal    Dual     Compl     Time
   0   1.62920006e+03  1.99764250e+03  2.92e+08 2.59e-02  2.42e+01    32s
   1   1.09154780e+01  1.64776898e+06  8.40e-03 2.23e-12  7.35e-01    34s
   2   1.71897652e+00  9.14515914e+04  8.37e-07 9.72e-14  4.08e-02    36s
   3   1.13991322e+01  2.59178989e+04  2.28e-07 2.66e-14  1.16e-02    38s
   4   5.69180458e+01  1.40190143e+03  1.48e-07 1.39e-16  6.00e-04    40s
   5   3.62094246e+01  1.05708679e+02  1.03e-07 4.56e-16  3.10e-05    42s
   6   5.69403884e+01  5.81901335e+01  5.27e-08 2.78e-17  5.58e-07    44s
   7   5.69999399e+01  5.70011896e+01  1.44e-07 2.78e-17  5.58e-10    45s
   8   5.69999999e+01  5.70000012e+01  4.22e-07 1.39e-17  5.58e-13    47s
   9   5.70000000e+01  5.70000000e+01  4.84e-07 1.39e-17  5.58e-16    49s

Barrier solved model in 9 iterations and 48.69 seconds
Optimal objective 5.70000000e+01


Root crossover log...

  639980 PPushes remaining with PInf 0.0000000e+00                51s
  579852 PPushes remaining with PInf 0.0000000e+00                60s
  521795 PPushes remaining with PInf 0.0000000e+00                65s
  423641 PPushes remaining with PInf 0.0000000e+00                70s
  264535 PPushes remaining with PInf 0.0000000e+00                75s
   75643 PPushes remaining with PInf 0.0000000e+00                80s
       0 PPushes remaining with PInf 0.0000000e+00                82s

  Push phase complete: Pinf 0.0000000e+00, Dinf 0.0000000e+00     82s


Root simplex log...

Iteration    Objective       Primal Inf.    Dual Inf.      Time
  639983    5.7000000e+01   0.000000e+00   0.000000e+00     83s
Concurrent spin time: 22.82s (can be avoided by choosing Method=3)

Solved with barrier

Root relaxation: objective 5.700000e+01, 639983 iterations, 55.73 seconds

    Nodes    |    Current Node    |     Objective Bounds      |     Work
 Expl Unexpl |  Obj  Depth IntInf | Incumbent    BestBd   Gap | It/Node Time

     0     0   57.00000    0 1823          -   57.00000      -     -  230s
H    0     0                      39.0000000   57.00000  46.2%     -  261s
H    0     0                      57.0000000   57.00000  0.00%     -  280s

Explored 1 nodes (653334 simplex iterations) in 280.19 seconds
Thread count was 4 (of 4 available processors)

Solution count 2: 57 39 

Optimal solution found (tolerance 1.00e-04)
Best objective 5.700000000000e+01, best bound 5.700000000000e+01, gap 0.0000%

Gurobi 8.1.0 (linux64, Python) logging started Thu May  9 06:49:03 2019

Academic license - for non-commercial use only
Optimize a model with 1283201 rows, 640800 columns and 5119200 nonzeros
Variable types: 800 continuous, 640000 integer (640000 binary)
Coefficient statistics:
  Matrix range     [1e+00, 8e+02]
  Objective range  [3e+00, 3e+00]
  Bounds range     [1e+00, 1e+00]
  RHS range        [1e+00, 8e+02]
Presolve time: 1.86s

Explored 0 nodes (0 simplex iterations) in 2.93 seconds
Thread count was 1 (of 4 available processors)

Solution count 0

Model is infeasible
Best objective -, best bound -, gap -
Optimize a model with 1282400 rows, 640800 columns and 5118399 nonzeros
Variable types: 800 continuous, 640000 integer (640000 binary)
Coefficient statistics:
  Matrix range     [1e+00, 8e+02]
  Objective range  [3e+00, 3e+00]
  Bounds range     [1e+00, 1e+00]
  RHS range        [1e+00, 8e+02]
Presolve removed 324397 rows and 1600 columns (presolve time = 5s) ...
Presolve removed 324397 rows and 1600 columns (presolve time = 10s) ...
Presolve removed 324397 rows and 1600 columns (presolve time = 16s) ...
Presolve removed 324397 rows and 1600 columns (presolve time = 21s) ...
Presolve removed 324397 rows and 1600 columns
Presolve time: 23.34s
Presolved: 958003 rows, 639200 columns, 4465611 nonzeros
Variable types: 799 continuous, 638401 integer (638401 binary)

Deterministic concurrent LP optimizer: dual simplex and barrier
Showing barrier log only...

Presolve removed 0 rows and 0 columns (presolve time = 6s) ...
Presolve removed 0 rows and 0 columns (presolve time = 12s) ...
Root barrier log...

Ordering time: 0.00s

Barrier statistics:
 Dense cols : 799
 AA' NZ     : 6.060e+06
 Factor NZ  : 1.148e+07 (roughly 700 MBytes of memory)
 Factor Ops : 4.678e+09 (less than 1 second per iteration)
 Threads    : 1

                  Objective                Residual
Iter       Primal          Dual         Primal    Dual     Compl     Time
   0   8.59322091e+02  1.99277731e+03  5.00e+06 2.60e-02  1.31e+01    54s
   1   7.48966011e+02  1.52711968e+06  4.39e+06 7.67e-13  1.09e+01    55s
   2   2.44120993e+01  1.19548877e+06  3.00e+03 5.29e-13  5.41e-01    57s
   3   1.56655631e+01  7.72261010e+05  3.97e+02 3.38e-13  3.46e-01    59s
   4   1.92795796e+01  8.57405492e+03  3.21e+00 4.05e-15  3.83e-03    61s
   5   5.69987981e+01  2.54065567e+02  3.45e-01 6.66e-16  8.82e-05    64s
   6   4.99810400e+01  5.73175137e+01  1.85e-02 4.44e-16  3.28e-06    68s
   7   5.69907903e+01  5.70014002e+01  5.76e-06 2.78e-17  4.74e-09    70s
   8   5.69999908e+01  5.70000014e+01  5.77e-10 1.90e-16  4.74e-12    72s
   9   5.70000000e+01  5.70000000e+01  8.87e-12 1.79e-16  1.65e-16    74s

Barrier solved model in 9 iterations and 73.91 seconds
Optimal objective 5.70000000e+01


Root crossover log...

     800 DPushes remaining with DInf 0.0000000e+00                76s
       0 DPushes remaining with DInf 0.0000000e+00                76s

  638418 PPushes remaining with PInf 0.0000000e+00                77s
  598660 PPushes remaining with PInf 0.0000000e+00                81s
  517637 PPushes remaining with PInf 0.0000000e+00                85s
  398971 PPushes remaining with PInf 0.0000000e+00                90s
  256027 PPushes remaining with PInf 0.0000000e+00                95s
   51011 PPushes remaining with PInf 0.0000000e+00               100s
       0 PPushes remaining with PInf 0.0000000e+00               101s

  Push phase complete: Pinf 0.0000000e+00, Dinf 0.0000000e+00    101s


Root simplex log...

Iteration    Objective       Primal Inf.    Dual Inf.      Time
  639184    5.7000000e+01   0.000000e+00   0.000000e+00    102s
Concurrent spin time: 23.55s (can be avoided by choosing Method=3)

Solved with barrier

Root relaxation: objective 5.700000e+01, 639184 iterations, 66.52 seconds

    Nodes    |    Current Node    |     Objective Bounds      |     Work
 Expl Unexpl |  Obj  Depth IntInf | Incumbent    BestBd   Gap | It/Node Time

     0     0   57.00000    0 1841          -   57.00000      -     -  224s
H    0     0                      57.0000000   57.00000  0.00%     -  241s

Explored 1 nodes (652077 simplex iterations) in 241.59 seconds
Thread count was 4 (of 4 available processors)

Solution count 1: 57 

Optimal solution found (tolerance 1.00e-04)
Best objective 5.700000000000e+01, best bound 5.700000000000e+01, gap 0.0000%
Optimize a model with 1282400 rows, 640800 columns and 5118399 nonzeros
Variable types: 800 continuous, 640000 integer (640000 binary)
Coefficient statistics:
  Matrix range     [1e+00, 8e+02]
  Objective range  [3e+00, 3e+00]
  Bounds range     [1e+00, 1e+00]
  RHS range        [1e+00, 8e+02]
Presolve removed 324397 rows and 1600 columns (presolve time = 5s) ...
Presolve removed 324397 rows and 1600 columns (presolve time = 10s) ...
Presolve removed 324397 rows and 1600 columns (presolve time = 15s) ...
Presolve removed 324397 rows and 1600 columns
Presolve time: 17.34s
Presolved: 958003 rows, 639200 columns, 4465611 nonzeros
Variable types: 799 continuous, 638401 integer (638401 binary)

Deterministic concurrent LP optimizer: dual simplex and barrier
Showing barrier log only...

Root barrier log...

Ordering time: 0.00s

Barrier statistics:
 Dense cols : 799
 AA' NZ     : 6.060e+06
 Factor NZ  : 1.148e+07 (roughly 700 MBytes of memory)
 Factor Ops : 4.678e+09 (less than 1 second per iteration)
 Threads    : 1

                  Objective                Residual
Iter       Primal          Dual         Primal    Dual     Compl     Time
   0   8.59322091e+02  1.99277731e+03  5.00e+06 2.60e-02  1.31e+01    38s
   1   7.48966011e+02  1.52711968e+06  4.39e+06 7.67e-13  1.09e+01    39s
   2   2.44120993e+01  1.19548877e+06  3.00e+03 5.29e-13  5.41e-01    43s
   3   1.56655631e+01  7.72261010e+05  3.97e+02 3.38e-13  3.46e-01    45s
   4   1.92795796e+01  8.57405492e+03  3.21e+00 4.05e-15  3.83e-03    47s
   5   5.69987981e+01  2.54065567e+02  3.45e-01 6.66e-16  8.82e-05    49s
   6   4.99810400e+01  5.73175137e+01  1.85e-02 4.44e-16  3.28e-06    52s
   7   5.69907903e+01  5.70014002e+01  5.76e-06 2.78e-17  4.74e-09    54s
   8   5.69999908e+01  5.70000014e+01  5.77e-10 1.90e-16  4.74e-12    56s
   9   5.70000000e+01  5.70000000e+01  8.87e-12 1.79e-16  1.65e-16    57s

Barrier solved model in 9 iterations and 57.03 seconds
Optimal objective 5.70000000e+01


Root crossover log...

     800 DPushes remaining with DInf 0.0000000e+00                59s
       0 DPushes remaining with DInf 0.0000000e+00                60s

  638418 PPushes remaining with PInf 0.0000000e+00                60s
  637636 PPushes remaining with PInf 0.0000000e+00                60s
  573454 PPushes remaining with PInf 0.0000000e+00                65s
  464247 PPushes remaining with PInf 0.0000000e+00                70s
  322223 PPushes remaining with PInf 0.0000000e+00                75s
  127076 PPushes remaining with PInf 0.0000000e+00                80s
       0 PPushes remaining with PInf 0.0000000e+00                83s

  Push phase complete: Pinf 0.0000000e+00, Dinf 0.0000000e+00     83s


Root simplex log...

Iteration    Objective       Primal Inf.    Dual Inf.      Time
  639184    5.7000000e+01   0.000000e+00   0.000000e+00     83s
Concurrent spin time: 19.65s (can be avoided by choosing Method=3)

Solved with barrier

Root relaxation: objective 5.700000e+01, 639184 iterations, 53.82 seconds

    Nodes    |    Current Node    |     Objective Bounds      |     Work
 Expl Unexpl |  Obj  Depth IntInf | Incumbent    BestBd   Gap | It/Node Time

     0     0   57.00000    0 1841          -   57.00000      -     -  213s
H    0     0                      57.0000000   57.00000  0.00%     -  230s

Explored 1 nodes (652077 simplex iterations) in 230.37 seconds
Thread count was 4 (of 4 available processors)

Solution count 1: 57 

Optimal solution found (tolerance 1.00e-04)
Best objective 5.700000000000e+01, best bound 5.700000000000e+01, gap 0.0000%
Optimize a model with 1282400 rows, 640800 columns and 5118399 nonzeros
Variable types: 0 continuous, 640800 integer (640000 binary)
Coefficient statistics:
  Matrix range     [1e+00, 8e+02]
  Objective range  [3e+00, 3e+00]
  Bounds range     [1e+00, 1e+00]
  RHS range        [1e+00, 8e+02]
Presolve removed 324397 rows and 1600 columns (presolve time = 5s) ...
Presolve removed 324397 rows and 1600 columns (presolve time = 10s) ...
Presolve removed 324397 rows and 1600 columns (presolve time = 17s) ...
Presolve removed 324397 rows and 1600 columns
Presolve time: 18.07s
Presolved: 958003 rows, 639200 columns, 4465611 nonzeros
Variable types: 0 continuous, 639200 integer (638401 binary)

Deterministic concurrent LP optimizer: dual simplex and barrier
Showing barrier log only...

Root barrier log...

Ordering time: 0.00s

Barrier statistics:
 Dense cols : 799
 AA' NZ     : 6.060e+06
 Factor NZ  : 1.148e+07 (roughly 700 MBytes of memory)
 Factor Ops : 4.678e+09 (less than 1 second per iteration)
 Threads    : 1

                  Objective                Residual
Iter       Primal          Dual         Primal    Dual     Compl     Time
   0   8.59322091e+02  1.99277731e+03  5.00e+06 2.60e-02  1.31e+01    39s
   1   7.48966011e+02  1.52711968e+06  4.39e+06 7.67e-13  1.09e+01    40s
   2   2.44120993e+01  1.19548877e+06  3.00e+03 5.29e-13  5.41e-01    42s
   3   1.56655631e+01  7.72261010e+05  3.97e+02 3.38e-13  3.46e-01    44s
   4   1.92795796e+01  8.57405492e+03  3.21e+00 4.05e-15  3.83e-03    45s
   5   5.69987981e+01  2.54065567e+02  3.45e-01 6.66e-16  8.82e-05    47s
   6   4.99810400e+01  5.73175137e+01  1.85e-02 4.44e-16  3.28e-06    49s
   7   5.69907903e+01  5.70014002e+01  5.76e-06 2.78e-17  4.74e-09    51s
   8   5.69999908e+01  5.70000014e+01  5.77e-10 1.90e-16  4.74e-12    53s
   9   5.70000000e+01  5.70000000e+01  8.87e-12 1.79e-16  1.65e-16    54s

Barrier solved model in 9 iterations and 54.36 seconds
Optimal objective 5.70000000e+01


Root crossover log...

     800 DPushes remaining with DInf 0.0000000e+00                56s
       0 DPushes remaining with DInf 0.0000000e+00                56s

  638418 PPushes remaining with PInf 0.0000000e+00                56s
  598660 PPushes remaining with PInf 0.0000000e+00                60s
  495989 PPushes remaining with PInf 0.0000000e+00                65s
  385495 PPushes remaining with PInf 0.0000000e+00                70s
  209400 PPushes remaining with PInf 0.0000000e+00                75s
   18809 PPushes remaining with PInf 0.0000000e+00                80s
       0 PPushes remaining with PInf 0.0000000e+00                81s

  Push phase complete: Pinf 0.0000000e+00, Dinf 0.0000000e+00     81s


Root simplex log...

Iteration    Objective       Primal Inf.    Dual Inf.      Time
  639184    5.7000000e+01   0.000000e+00   0.000000e+00     81s
Concurrent spin time: 18.60s (can be avoided by choosing Method=3)

Solved with barrier

Root relaxation: objective 5.700000e+01, 639184 iterations, 47.21 seconds

    Nodes    |    Current Node    |     Objective Bounds      |     Work
 Expl Unexpl |  Obj  Depth IntInf | Incumbent    BestBd   Gap | It/Node Time

     0     0   57.00000    0 1847          -   57.00000      -     -  234s
H    0     0                      57.0000000   57.00000  0.00%     -  242s

Explored 1 nodes (658974 simplex iterations) in 242.63 seconds
Thread count was 4 (of 4 available processors)

Solution count 1: 57 

Optimal solution found (tolerance 1.00e-04)
Best objective 5.700000000000e+01, best bound 5.700000000000e+01, gap 0.0000%
